p cnf 33 221
1 4 7 10 13 16 19 22 25 28 31 0
2 5 8 11 14 17 20 23 26 29 32 0
3 6 9 12 15 18 21 24 27 30 33 0
-1 -2 0
-1 -3 0
-2 -3 0
-4 -5 0
-4 -6 0
-5 -6 0
-7 -8 0
-7 -9 0
-8 -9 0
-10 -11 0
-10 -12 0
-11 -12 0
-13 -14 0
-13 -15 0
-14 -15 0
-16 -17 0
-16 -18 0
-17 -18 0
-19 -20 0
-19 -21 0
-20 -21 0
-22 -23 0
-22 -24 0
-23 -24 0
-25 -26 0
-25 -27 0
-26 -27 0
-28 -29 0
-28 -30 0
-29 -30 0
-31 -32 0
-31 -33 0
-32 -33 0
-4 -1 0
-7 -1 0
-7 -4 0
-10 -1 0
-10 -4 0
-10 -7 0
-13 -1 0
-13 -4 0
-13 -7 0
-13 -10 0
-16 -1 0
-16 -4 0
-16 -7 0
-16 -10 0
-16 -13 0
-19 -1 0
-19 -4 0
-19 -7 0
-19 -10 0
-19 -13 0
-19 -16 0
-22 -1 0
-22 -4 0
-22 -7 0
-22 -10 0
-22 -13 0
-22 -16 0
-22 -19 0
-25 -1 0
-25 -4 0
-25 -7 0
-25 -10 0
-25 -13 0
-25 -16 0
-25 -19 0
-25 -22 0
-28 -1 0
-28 -4 0
-28 -7 0
-28 -10 0
-28 -13 0
-28 -16 0
-28 -19 0
-28 -22 0
-28 -25 0
-31 -1 0
-31 -4 0
-31 -7 0
-31 -10 0
-31 -13 0
-31 -16 0
-31 -19 0
-31 -22 0
-31 -25 0
-31 -28 0
-5 -2 0
-8 -2 0
-8 -5 0
-11 -2 0
-11 -5 0
-11 -8 0
-14 -2 0
-14 -5 0
-14 -8 0
-14 -11 0
-17 -2 0
-17 -5 0
-17 -8 0
-17 -11 0
-17 -14 0
-20 -2 0
-20 -5 0
-20 -8 0
-20 -11 0
-20 -14 0
-20 -17 0
-23 -2 0
-23 -5 0
-23 -8 0
-23 -11 0
-23 -14 0
-23 -17 0
-23 -20 0
-26 -2 0
-26 -5 0
-26 -8 0
-26 -11 0
-26 -14 0
-26 -17 0
-26 -20 0
-26 -23 0
-29 -2 0
-29 -5 0
-29 -8 0
-29 -11 0
-29 -14 0
-29 -17 0
-29 -20 0
-29 -23 0
-29 -26 0
-32 -2 0
-32 -5 0
-32 -8 0
-32 -11 0
-32 -14 0
-32 -17 0
-32 -20 0
-32 -23 0
-32 -26 0
-32 -29 0
-6 -3 0
-9 -3 0
-9 -6 0
-12 -3 0
-12 -6 0
-12 -9 0
-15 -3 0
-15 -6 0
-15 -9 0
-15 -12 0
-18 -3 0
-18 -6 0
-18 -9 0
-18 -12 0
-18 -15 0
-21 -3 0
-21 -6 0
-21 -9 0
-21 -12 0
-21 -15 0
-21 -18 0
-24 -3 0
-24 -6 0
-24 -9 0
-24 -12 0
-24 -15 0
-24 -18 0
-24 -21 0
-27 -3 0
-27 -6 0
-27 -9 0
-27 -12 0
-27 -15 0
-27 -18 0
-27 -21 0
-27 -24 0
-30 -3 0
-30 -6 0
-30 -9 0
-30 -12 0
-30 -15 0
-30 -18 0
-30 -21 0
-30 -24 0
-30 -27 0
-33 -3 0
-33 -6 0
-33 -9 0
-33 -12 0
-33 -15 0
-33 -18 0
-33 -21 0
-33 -24 0
-33 -27 0
-33 -30 0
1 4 2 5 3 6 0
1 10 2 11 3 12 0
1 19 2 20 3 21 0
1 25 2 26 3 27 0
4 7 5 8 6 9 0
4 16 5 17 6 18 0
4 22 5 23 6 24 0
10 13 11 14 12 15 0
10 16 11 17 12 18 0
10 28 11 29 12 30 0
19 7 20 8 21 9 0
19 31 20 32 21 33 0
25 13 26 14 27 15 0
25 31 26 32 27 33 0
7 13 8 14 9 15 0
7 28 8 29 9 30 0
16 31 17 32 18 33 0
22 13 23 14 24 15 0
22 31 23 32 24 33 0
28 31 29 32 30 33 0
